CMD:
./solvers/bin/cadical --plain --no-reduce -t 1600 ./data/cnfs//oc8051gm1edata/oc8051gm1edata.82.cnf

c --- [ banner ] -------------------------------------------------------------
c 
c CaDiCaL SAT Solver
c Copyright (c) 2016-2024
c A. Biere, M. Fleury, N. Froleyks, K. Fazekas, F. Pollitt, T. Faller
c JKU Linz, University of Freiburg, TU Wien
c 
c Version 2.1.3 5296d3d2a9bf48c154ab2acb5e44625776d821bf
c g++ (Gentoo 12.3.1_p20230526 p2) 12.3.1 20230526 -Wall -Wextra -O3 -DNDEBUG
c Sat Aug 9 07:26:21 PDT 2025 Linux cedar2.int.cedar.computecanada.ca 5.14.0-362.24.2.el9_3.x86_64 x86_64
c 
c --- [ limit ] --------------------------------------------------------------
c 
c setting time limit to 1600 seconds real time (due to '-t 1600')
c 
c --- [ parsing input ] ------------------------------------------------------
c 
c reading DIMACS file from './data/cnfs//oc8051gm1edata/oc8051gm1edata.82.cnf'
c opening file to read './data/cnfs//oc8051gm1edata/oc8051gm1edata.82.cnf'
c found 'p cnf 917050 2669715' header
c parsed 2669715 clauses in 0.42 seconds process time
c 
c --- [ options ] ------------------------------------------------------------
c 
c   --compact=false                (different from default 'true')
c   --decompose=false              (different from default 'true')
c   --deduplicate=false            (different from default 'true')
c   --elim=false                   (different from default 'true')
c   --probe=false                  (different from default 'true')
c   --reduce=false                 (different from default 'true')
c   --subsume=false                (different from default 'true')
c   --ternary=false                (different from default 'true')
c   --transred=false               (different from default 'true')
c   --vivify=false                 (different from default 'true')
c 
c --- [ solving ] ------------------------------------------------------------
c 
c time measured in process time since initialization
c 
c  seconds   reductions  redundant   irredundant
c          MB    restarts       trail        variables
c           level   conflicts       glue           remaining
c 
c *  0.42 396  0 0   0    0    0  0% 0 2435455 784589 86%
c {  0.64 406  0 0   0    0    0  0% 0 2435455 784589 86%
c i  0.66 406 93 0   0   39   30 15% 2 2435455 782881 85%
c i  0.66 406 91 0   0   40   30 15% 2 2435455 782879 85%
c i  0.66 406 82 0   0   44   33 15% 2 2435455 781609 85%
c i  0.66 406 78 0   0   46   33 15% 2 2435455 780910 85%
c i  0.86 408 116 0   6   72   58 19% 5 2435455 780829 85%
c i  0.87 408 79 0  10  147  112 18% 5 2435455 780802 85%
c }  0.98 409 47 0  29 1002  875 18% 4 2435455 780801 85%
c [  0.98 409  0 0  29 1002  875  0% 0 2435455 780801 85%
c O  1.05 409 347 0  29 1003  876 87% 117 2435455 780801 85%
c i 14.04 414 389 0  30 2481 2156 48% 62 2435455 780765 85%
c ] 15.45 415 413 0  30 3004 2623 49% 63 2435455 780765 85%
c { 15.45 415 47 0  30 3004 2623 18% 4 2435455 780765 85%
c F 15.45 415 47 0  31 3005 2624 18% 4 2435455 780765 85%
c i 15.48 415 46 0  36 3060 2674 18% 4 2435455 780697 85%
c i 15.59 415 42 0 101 3493 3066 18% 4 2435455 780667 85%
c i 15.89 415 39 0 272 4598 4067 18% 4 2435455 780617 85%
c i 16.11 415 38 0 402 5347 4743 18% 4 2435455 780600 85%
c # 16.35 416 39 0 480 6006 5329 18% 5 2435455 780600 85%
c 
c  seconds   reductions  redundant   irredundant
c          MB    restarts       trail        variables
c           level   conflicts       glue           remaining
c 
c } 16.56 416 37 0 584 7006 6230 18% 5 2435455 780600 85%
c [ 16.57 416 413 0 584 7006 6230 49% 63 2435455 780600 85%
c I 17.62 418 230 0 586 10008 8980 35% 29 2435455 780600 85%
c i 20.64 420 164 0 589 14015 12665 33% 20 2435455 780570 85%
c ] 20.87 420 149 0 589 15008 13592 32% 19 2435455 780570 85%
c { 20.87 420 37 0 589 15008 13592 18% 5 2435455 780570 85%
c B 20.88 420 37 0 590 15009 13593 18% 5 2435455 780568 85%
c i 22.60 422 44 0 815 18217 16436 19% 5 2435455 780551 85%
c i 22.63 422 44 0 816 18301 16513 19% 5 2435455 780521 85%
c W 24.61 421 41 0 1327 21010 18827 18% 5 2227522 780521 85%
c i 26.27 421 40 0 1944 24198 21769 19% 5 2227522 780504 85%
c i 27.36 421 40 0 2276 25608 23068 19% 5 2227522 780487 85%
c i 27.50 421 40 0 2322 25957 23362 19% 5 2227522 780486 85%
c i 27.54 421 40 0 2339 26038 23436 19% 5 2227522 780455 85%
c F 28.72 421 40 0 2726 28011 25251 19% 6 2227522 780455 85%
c } 30.51 421 38 0 3328 31014 27995 19% 6 2227522 780455 85%
c [ 30.51 421 149 0 3328 31014 27995 32% 19 2227522 780455 85%
c B 31.95 421 110 0 3331 36013 32855 28% 17 2227522 780455 85%
c W 35.83 500 90 0 3335 45014 41224 25% 16 2227230 780455 85%
c i 39.13 500 103 0 3336 52804 48532 28% 17 2227230 780389 85%
c 
c  seconds    reductions     redundant    irredundant
c          MB     restarts          trail         variables
c            level     conflicts        glue            remaining
c 
c O 40.23 500 114 0 3337 55019 50622 28% 20 2227230 780353 85%
c ] 44.29 500 113 0 3342 63016 57966 30% 19 2227230 780353 85%
c { 44.29 500 38 0 3342 63016 57966 19% 6 2227230 780353 85%
c B 46.78 500 38 0 3986 66020 60654 19% 6 2227230 780353 85%
... skipped 9 lines ...
c W 54.82 507 42 0 5277 78022 71478 19% 7 2226701 780313 85%
c i 55.47 507 43 0 5393 78918 72284 19% 7 2226701 780312 85%
c i 55.47 507 43 0 5393 78920 72285 19% 7 2226701 780311 85%
c i 59.06 507 42 0 6257 83563 76214 19% 7 2226701 780294 85%
c # 63.78 507 42 0 7134 91025 82595 20% 7 2226701 780294 85%
c i 63.84 507 42 0 7141 91357 82887 20% 7 2226701 780293 85%
c i 69.86 507 41 0 8142 100536 90972 20% 8 2226701 780262 85%
c 
c  seconds   reductions      redundant   irredundant
c          MB    restarts           trail        variables
c           level     conflicts         glue           remaining
c 
c B 73.51 507 40 0 8868 105026 94851 20% 8 2226701 780262 85%
c i 75.27 507 39 0 9121 107715 96782 20% 8 2226701 780172 85%
c i 77.16 507 38 0 9348 111214 99368 20% 8 2226701 780090 85%
c i 77.80 507 38 0 9446 111911 99977 20% 8 2226701 780030 85%
c i 80.07 507 36 0 9642 115644 102692 20% 8 2226701 779950 85%
c i 80.90 507 36 0 9662 117266 103744 20% 8 2226701 779870 85%
c W 83.31 508 35 0 9937 120028 88861 20% 8 2224594 779870 85%
c i 84.18 508 35 0 9997 121439 89752 20% 8 2224594 779790 85%
c i 84.21 508 35 0 9997 121551 89786 20% 8 2224594 779708 85%
c i 84.83 508 36 0 10018 123038 91145 20% 8 2224594 779707 85%
c i 84.83 508 36 0 10018 123050 91153 20% 8 2224594 779706 85%
c i 84.83 508 36 0 10018 123053 91154 20% 8 2224594 779704 85%
c i 84.83 508 36 0 10018 123054 91154 20% 8 2224594 779693 85%
c i 84.95 508 36 0 10035 123294 91370 20% 8 2224594 779692 85%
c i 84.95 508 36 0 10035 123320 91391 20% 8 2224594 779691 85%
c i 87.27 508 35 0 10324 126052 93634 20% 8 2224594 779327 85%
c } 88.02 508 35 0 10390 127017 94515 20% 8 2224594 779327 85%
c [ 88.02 508 113 0 10390 127017 94515 30% 19 2224594 779327 85%
c i 89.58 508 106 0 10391 129266 96162 29% 18 2224594 779101 85%
c i 93.93 508 94 0 10394 135136 101254 28% 17 2224594 779084 85%
c 
c  seconds   reductions       redundant     irredundant
c          MB     restarts            trail         variables
c           level      conflicts          glue            remaining
c 
c B 94.62 508 93 0 10395 136030 102059 28% 17 2224594 779084 85%
c W 106.79 509 72 0 10400 153031 100568 26% 15 2221188 779084 85%
c i 109.77 509 68 0 10400 157333 103452 25% 14 2221188 777404 85%
c i 109.96 509 67 0 10400 157738 103582 25% 14 2221188 775869 85%
c i 109.98 509 67 0 10400 157799 103599 25% 14 2221188 774049 84%
c i 110.00 509 67 0 10400 157841 103608 25% 14 2221188 772197 84%
c i 110.01 509 67 0 10400 157852 103612 25% 14 2221188 769985 84%
c ] 110.02 509 67 0 10400 157858 103615 25% 14 2221188 767509 84%
c 0 110.02 509 67 0 10400 157858 103615 25% 14 2221188 767509 84%
c 
c --- [ result ] -------------------------------------------------------------
c 
s UNSATISFIABLE
c 
c --- [ run-time profiling ] -------------------------------------------------
c 
c process time taken by individual solving procedures
c (percentage relative to process time for solving)
c 
c       109.60  100.00% search
c        53.31   48.64% stable
c        52.88   48.25% unstable
c         3.18    2.90% walk
c         0.42    0.38% parse
c         0.22    0.21% lucky
c         0.00    0.00% simplify
c   =================================
c       109.60   99.62% solve
c 
c last line shows process time for solving
c (percentage relative to total process time)
c 
c --- [ statistics ] ---------------------------------------------------------
c 
c chronological:             46389        29.39 %  of conflicts
c conflicts:                157858      1440.36    per second
c decisions:                592019      5401.80    per second
c fixed:                    149495        16.30 %  of all variables
c learned:                  152229        96.43 %  per conflict
c learned_lits:            8204124       100.00 %  learned literals
c minimized:                     0         0.00 %  learned literals
c shrunken:                1756683        21.41 %  learned literals
c minishrunken:            1644287        20.04 %  learned literals
c otfs:                        637         0.40 %  of conflict
c propagations:         1564642237        14.28 M  per second
c rephased:                     17      9285.76    interval
c restarts:                  10400        15.18    interval
c stabilizing:                   4        46.13 %  of conflicts
c subsumed:                  16143         0.62 %  of all clauses
c strengthened:                609         0.02 %  of all clauses
c walked:                        5     31571.60    interval
c 
c seconds are measured in process time for solving
c 
c --- [ resources ] ----------------------------------------------------------
c 
c total process time since initialization:       110.02    seconds
c total real time since initialization:          110.63    seconds
c maximum resident set size of process:          594.32    MB
c 
c --- [ shutting down ] ------------------------------------------------------
c 
c exit 20
